(set-logic ALL)
(set-option :produce-models true)
(declare-sort BoundSet 0)
(declare-sort UnboundSet 0)
(declare-fun IsClimbing (BoundSet) Bool)
(declare-fun IsOnCliff (BoundSet) Bool)
(declare-fun IsHe (BoundSet) Bool)
(declare-fun IsRockClimber (BoundSet) Bool)
(assert (not (=> (and (exists ((b BoundSet)) (exists ((a BoundSet)) (and (IsClimbing a) (IsOnCliff b)))) (and (forall ((e BoundSet)) (forall ((f BoundSet)) (=> (IsClimbing e) (IsHe f)))) (forall ((g BoundSet)) (forall ((h BoundSet)) (=> (IsClimbing g) (IsRockClimber h)))))) (exists ((c BoundSet)) (exists ((d BoundSet)) (and (IsHe c) (IsRockClimber d)))))))
(check-sat)
(get-model)